1 3.64 2.68   
2 4.18 1.76   
3 3.71 2.60
4 2.77 1.50
5 1.33 3.30
6 4.20 2.96
7 4.39 3.43 
8 3.92 1.82 
9 4.26 1.07
10 2.55 1.64
11 2.37 1.02
12 3.43 2.09
13 3.54 0.70 
14 3.51 1.62
15 3.44 0.80 
16 3.24 2.77
17 2.38 2.32
18 2.56 2.24
19 3.01 2.4
20 2.79 2.51
21 3.33 2.44
22 2.94 0.76
23 3.39 1.36
24 3.49 2.46
25 2.78 1.17
26 3.14 0.45
27 4.31 3.21
28 3.72 2.32 
29 4.06 1.63
30 3.78 1.79
31 3.68 1.42
32 4.03 1.16
33 3.79 1.56
34 3.89 2.38
35 2.98 1.07
36 3.86 0.15
37 4.01 3.83
38 3.82 2.52 
39 4.26 1.73
40 3.88 1.89
41 3.78 1.52
42 4.62 2.58   
43 4.78 1.26   
44 3.72 2.09
45 2.70 1.41
46 1.03 3.31
47 4.10 2.86
48 4.49 3.53 

